20
58.0
0 19 13.43 12.0
1 18 11.88 11.85
2 17 12.13 14.33
3 16 13.52 12.55
4 15 11.02 13.13
5 14 11.24 14.49
6 13 10.22 15.57
7 12 8.22 16.42
8 11 15.83 9.69
9 10 7.58 17.78
10 9 15.8 7.63
11 8 7.13 17.54
12 7 19.87 8.09
13 6 17.84 8.64
14 5 15.94 9.71
15 4 13.68 13.47
16 3 8.41 15.21
17 2 0.51 25.9
18 1 27.34 0.83
